
******************************************************************************
This program contains Ipopt, a library for large-scale nonlinear optimization.
 Ipopt is released as open source code under the Eclipse Public License (EPL).
         For more information visit http://projects.coin-or.org/Ipopt

This version of Ipopt was compiled from source code available at
    https://github.com/IDAES/Ipopt as part of the Institute for the Design of
    Advanced Energy Systems Process Systems Engineering Framework (IDAES PSE
    Framework) Copyright (c) 2018-2019. See https://github.com/IDAES/idaes-pse.

This version of Ipopt was compiled using HSL, a collection of Fortran codes
    for large-scale scientific computation.  All technical papers, sales and
    publicity material resulting from use of the HSL codes within IPOPT must
    contain the following acknowledgement:
        HSL, a collection of Fortran codes for large-scale scientific
        computation. See http://www.hsl.rl.ac.uk.
******************************************************************************

This is Ipopt version 3.13.2, running with linear solver ma27.

Number of nonzeros in equality constraint Jacobian...:      958
Number of nonzeros in inequality constraint Jacobian.:        0
Number of nonzeros in Lagrangian Hessian.............:      832

Total number of variables............................:      416
                     variables with only lower bounds:      128
                variables with lower and upper bounds:      224
                     variables with only upper bounds:        0
Total number of equality constraints.................:      415
Total number of inequality constraints...............:        0
        inequality constraints with only lower bounds:        0
   inequality constraints with lower and upper bounds:        0
        inequality constraints with only upper bounds:        0

iter    objective    inf_pr   inf_du lg(mu)  ||d||  lg(rg) alpha_du alpha_pr  ls
   0  0.0000000e+00 3.91e-01 2.84e-14  -1.0 0.00e+00    -  0.00e+00 0.00e+00   0
   1  5.6682137e-02 4.67e-01 3.19e+05  -1.0 4.79e+04    -  5.22e-01 4.33e-01h  1
   2  5.9063486e-02 4.56e-01 3.13e+05  -1.0 4.38e+04    -  8.25e-01 2.05e-02h  1
   3  8.4703610e-02 4.29e-01 3.03e+05  -1.0 1.55e+05    -  5.67e-02 6.01e-02h  1
   4  6.3290265e+00 1.35e-01 7.27e+04  -1.0 1.48e+05    -  1.07e-01 9.90e-01h  1
   5  7.5286352e+00 3.78e-02 1.95e+04  -1.0 1.56e+04    -  8.18e-01 9.90e-01h  1
   6  7.5512758e+00 5.36e-03 1.06e+04  -1.0 2.95e+02    -  9.35e-01 9.90e-01h  1
   7  7.6116944e+00 2.95e-04 1.64e+06  -1.0 6.96e+02    -  9.05e-01 9.90e-01h  1
   8  7.8696948e+00 1.76e-05 7.84e+08  -1.0 2.93e+03    -  5.81e-01 9.90e-01H  1
   9  8.1637819e+00 4.39e-06 7.57e+06  -1.0 3.28e+03    -  9.90e-01 9.90e-01H  1
iter    objective    inf_pr   inf_du lg(mu)  ||d||  lg(rg) alpha_du alpha_pr  ls
  10  7.5482577e+00 1.31e-03 1.89e+11  -2.5 1.06e+04    -  9.97e-01 6.48e-01f  1
  11  7.5547723e+00 4.86e-06 2.74e+09  -2.5 7.69e+01    -  9.99e-01 9.97e-01h  1
In iteration 11, 32 Slacks too small, adjusting variable bounds
  12  7.5535541e+00 1.66e-08 1.54e+12  -2.5 1.40e+01    -  1.00e+00 9.97e-01h  1
  13  7.5535478e+00 2.91e-12 2.98e-02  -2.5 7.19e-02    -  1.00e+00 1.00e+00h  1
  14  7.5505357e+00 1.73e-09 1.37e+11  -9.0 3.66e+01    -  1.00e+00 9.40e-01F  1
  15  7.5505357e+00 1.91e-11 1.45e-05  -9.0 7.79e-05    -  1.00e+00 1.00e+00h  1
  16  7.5505357e+00 3.95e-11 1.16e-10  -9.0 1.10e-07    -  1.00e+00 1.00e+00h  1

Number of Iterations....: 16

                                   (scaled)                 (unscaled)
Objective...............:   7.5505356566164750e+00    7.5505356566164750e+00
Dual infeasibility......:   1.1641532182693481e-10    1.1641532182693481e-10
Constraint violation....:   3.9500402948533520e-11    3.9500402948533520e-11
Complementarity.........:   9.0909107461624438e-10    9.0909107461624438e-10
Overall NLP error.......:   3.9500402948533520e-11    9.0909107461624438e-10


Number of objective function evaluations             = 21
Number of objective gradient evaluations             = 17
Number of equality constraint evaluations            = 21
Number of inequality constraint evaluations          = 0
Number of equality constraint Jacobian evaluations   = 17
Number of inequality constraint Jacobian evaluations = 0
Number of Lagrangian Hessian evaluations             = 16
Total CPU secs in IPOPT (w/o function evaluations)   =      0.041
Total CPU secs in NLP function evaluations           =      0.359

EXIT: Optimal Solution Found.
